K = 2;
capacity =
  [60, 40, 45, 34, 60, 33, 34, 60];
  
N = 6;
nStudents = [300, 200, 250, 100, 300, 250];
year = [1,2,3,2,3,2];

D = 3;
department = [1,2,3,3,2,2];

requiredTime = [40, 55, 50, 45, 45, 55];